25334,
24367,
22897,
22765,
22033,
22033,
21539,
21169,
20132,
20119,
19462,
19387,
19109,
18584,
16707,
16707,
16607,
16303,
16196,
16196,
16010,
15888,
15542,
15430,
15372,
15303,
15131,
14730,
14730,
14604,
14382,
14382,
14085,
13933,
13696,
13554,
13437,
13324,
13287,
13282,
13131,
12920,
12633,
12540,
12484,
12221,
12141,
12039,
11978,
11890,
11748,
11733,
11688,
11545,
11545,
11508,
11505,
11488,
11451,
11362,
11300,
11032,
10926,
10926,
10926,
10926,
10926,
10926,
10823,
10447,
10404,
10380,
10380,
10380,
10380,
10378,
10351,
10348,
10205,
10202,
10136,
10134,
10134,
9951,
9951,
9935,
9857,
9842,
9842,
9842,
9841,
9841,
9841,
9841,
9841,
9783,
9783,
9775,
9775,
9702,
9682,
9627,
9616,
9616,
9616,
9616,
9603,
9603,
9550,
9536,
9495,
9495,
9468,
9359,
9359,
9333,
9333,
9333,
9318,
9318,
9318,
9318,
9318,
9303,
9303,
9303,
9303,
9303,
9303,
9303,
9303,
9280,
9280,
9280,
9280,
9280,
9038,
9038,
9038,
9038,
9038,
9018,
8943,
8943,
8943,
8943,
8943,
8943,
8943,
8943,
8943,
8943,
8943,
8943,
8943,
8943,
8943,
8943,
8943,
8943,
8943,
8943,
8943,
8935,
8935,
8935,
8935,
8935,
8935,
8935,
8935,
8935,
8935,
8935,
8935,
8877,
8877,
8877,
8877,
8877,
8877,
8877,
8877,
8877,
8877,
8877,
8877,
8877,
8877,
8877,
8877,
8877,
8877,
8877,
8877,
8877,
8877,
8877,
8877,
8877,
8877,
8877,
8877,
8877,
8877,
8877,
8877,
8877,
8877,
8877,
8877,
8877,
8877,
8877,
8877,
8877,
8877,
8877,
8877,
8877,
8877,
8877,
8877,
8877,
8877,
8877,
8877,
8877,
8877,
8877,
8877,
8877,
8877,
8877,
8877,
8877,
8877,
8877,
8877,
8877,
8877,
8877,
8877,
8877,
8877,
8877,
8877,
8877,
8877,
8877,
8877,
8877,
8877,
8877,
8877,
8877,
8877,
8877,
8877,
8877,
8877,
8877,
8877,
8877,
8877,
8877,
8877,
8877,
8877,
8877,
8877,
8877,
8877,
8877,
8877,
8877,
8877,
8877,
8877,
8877,
8877,
8877,
8877,
8877,
8877,
8877,
8877,
8877,
8877,
8877,
8877,
8877,
8877,
8877,
8877,
8877,
8877,
8877,
8877,
8877,
8877,
8877,
8877,
8877,
8877,
8877,
8877,
8877,
8877,
8877,
8877,
8877,
8877,
8877,
8877,
8877,
8877,
8877,
8877,
8877,
8877,
8877,
8877,
8877,
8877,
8877,
8877,
8877,
8877,
8877,
8877,
8877,
8877,
8877,
8877,
8877,
8877,
8877,
8877,
8877,
8877,
8877,
8877,
8877,
8877,
8877,
8877,
8877,
8877,
8877,
8877,
8877,
8877,
8877,
8877,
8877,
8877,
8877,
8877,
8877,
8877,
8877,
8877,
8877,
8877,
8877,
8877,
8877,
8877,
8877,
8877,
8877,
8877,
8877,
8877,
8877,
8877,
8877,
8877,
8877,
8877,
8877,
8877,
8877,
8877,
8877,
8877,
8877,
8877,
8877,
8877,
8877,
8877,
8877,
8877,
8877,
8877,
8877,
8877,
8877,
8877,
8877,
8877,
8877,
8877,
8877,
8877,
8877,
8877,
8877,
8877,
8877,
8877,
8877,
8877,
8877,
8877,
8877,
8877,
8877,
8877,
8877,
8877,
8877,
8877,
8877,
8877,
8877,
8877,
8877,
8877,
8877,
8877,
8877,
8877,
8877,
8877,
8877,
8877,
8877,
8877,
8877,
8877,
8877,
8877,
8877,
8877,
8877,
8877,
8877,
8877,
8877,
8877,
8877,
8877,
8877,
8877,
8877,
8877,
8877,
8877,
8877,
8877,
8877,
8877,
8877,
8877,
8877,
8877,
8877,
8877,
8877,
8877,
8877,
8877,
8877,
8877,
8877,
8877,
8877,
8877,
8877,
8877,
8877,
8877,
8877,
8877,
8877,
8877,
8877,
8877,
8877,
8877,
8877,
8877,
8877,
8877,
8877,
8877,
8877,
8877,
8877,
8877,
8877,
8877,
8877,
8877,
8877,
8877,
8877,
8877,
8877,
8877,
8877,
8877,
8877,
8877,
8877,
8877,
8877,
8877,
8877,
8877,
8877,
8877,
8877,
8877,
8877,
8877,
8877,
8877,
8877,
8877,
8877,
8877,
8877,
8877,
8877,
8877,
8877,
8877,
8877,
8877,
8877,
8877,
8877,
8877,
8877,
8877,
8877,
8877,
8877,
8877,
8877,
8877,
8877,
8877,
8877,
8877,
8877,
8877,
8877,
8877,
8877,
8877,
8877,
8877,
8877,
8877,
8877,
8877,
8877,
8877,
8877,
8877,
8877,
8877,
8877,
8877,
8877,
8877,
8877,
8877,
8877,
8877,
8877,
8877,
8877,
8877,
8877,
8877,
8877,
8877,
8877,
8877,
8877,
8877,
8877,
8877,
8877,
8877,
8877,
8877,
8877,
8877,
8877,
8877,
8877,
8877,
8877,
8877,
8877,
8877,
8877,
8877,
8877,
8877,
8877,
8877,
8877,
8877,
8877,
8877,
8877,
8877,
8877,
8877,
8877,
8877,
8877,
8877,
8877,
8877,
8877,
8877,
8877,
8877,
8877,
8877,
8877,
8877,
8877,
8877,
8877,
8877,
8877,
8877,
8877,
8877,
8877,
8877,
8877,
8877,
8877,
8877,
8877,
8877,
8877,
8877,
8877,
8877,
8877,
8877,
8877,
8877,
8877,
8877,
8877,
8877,
8877,
8877,
8877,
8877,
8877,
8877,
8877,
8877,
8877,
8877,
8877,
8877,
8877,
8877,
8877,
8877,
8877,
8877,
8877,
8877,
8877,
8877,
8877,
8877,
8877,
8877,
8877,
8877,
8877,
8877,
8877,
8877,
8877,
8877,
8877,
8877,
8877,
8877,
8877,
8877,
8877,
8877,
8877,
8877,
8877,
8877,
8877,
8877,
8877,
8877,
8877,
8877,
8877,
8877,
8877,
8877,
8877,
8877,
8877,
8877,
8877,
8877,
8877,
8877,
8877,
8877,
8877,
8877,
8877,
8877,
8877,
8877,
8877,
8877,
8877,
8877,
8877,
8877,
8877,
8877,
8877,
8877,
8877,
8877,
8877,
8877,
8877,
8877,
8877,
8877,
8877,
8877,
8877,
8877,
8877,
8877,
8877,
8877,
8877,
8877,
8877,
8877,
8877,
8877,
8877,
8877,
8877,
8877,
8877,
8877,
8877,
8877,
8877,
8877,
8877,
8877,
8877,
8877,
8877,
8877,
8877,
8877,
8877,
8877,
8877,
8877,
8877,
8877,
8877,
8877,
8877,
8877,
8877,
8877,
8877,
8877,
8877,
8877,
8877,
8877,
8877,
8877,
8877,
8877,
8877,
8877,
8877,
8877,
8877,
8877,
8877,
8877,
8877,
8877,
8877,
8877,
8877,
8877,
8877,
8877,
8877,
8877,
8877,
8877,
8877,
8877,
8877,
8877,
8877,
8877,
8877,
8877,
8877,
8877,
8877,
8877,
8877,
8877,
8877,
8877,
8877,
8877,
8877,
8877,
8877,
8877,
8877,
8877,
8877,
8877,
8877,
8877,
8877,
8877,
8877,
8877,
8877,
8877,
8877,
8877,
8877,
8877,
8877,
8877,
8877,
8877,
8877,
8877,
8877,
8877,
8877,
8877,
8877,
8877,
8877,
8877,
8877,
8877,
8877,
8877,
8877,
8877,
8877,
8877,
8877,
8877,
8877,
8877,
8877,
8877,
8877,
8877,
8877,
8877,
8877,
8877,
8877,
8877,
8877,
8877,
8877,
8877,
8877,
8877,
8877,
8877,
8877,
8877,
8877,
8877,
8877,
8877,
8877,
8877,
8877,
8877,
8877,
8877,
8877,
8877,
8877,
8877,
8877,
8877,
8877,
8877,
8877,
8877,
8877,
8877,
8877,
8877,
8877,
8877,
8877,
8877,
8877,
8877,
8877,
8877,
8877,
8877,
8877,
8877,
8877,
8877,
8877,
8877,
8877,
8877,
8877,
8877,
8877,
8877,
8877,
8877,
8877,
8877,
8877,
8877,
8877,
8877,
8877,
8877,
8877,
8877,
8877,
8877,
8877,
8877,
8877,
8877,
8877,
8877,
8877,
8877,
8877,
8877,
8877,
8877,
8877,
8877,
8877,
8877,
8877,
8877,
8877,
8877,
8877,
8877,
8877,
8877,
8877,
8877,
8877,
8877,
8877,
8877,
8877,
8877,
8877,
8877,
8877,
8877,
8877,
8877,
8877,
8877,
8877,
8877,
8877,
8877,
8877,
8877,
8877,
8877,
8877,
8877,
8877,
8877,
8877,
8877,
8877,
8877,
8877,
8877,
8877,
8877,
8877,
8877,
8877,
8877,
8877,
8877,
8877,
8877,
8877,
8877,
8877,
8877,
8877,
8877,
8877,
8877,
8877,
8877,
8877,
8877,
8877,
8877,
8877,
8877,
8877,
8877,
8877,
8877,
8877,
8877,
8877,
8877,
8877,
8877,
8877,
8877,
8877,
8877,
8877,
8877,
8877,
8877,
8877,
8877,
8877,
8877,
8877,
8877,
8877,
8877,
8877,
8877,
8877,
8877,
8877,
8877,
8877,
8877,
8877,
8877,
8877,
8877,
8877,
8877,
8877,
8877,
8877,
8877,
8877,
8877,
8877,
8877,
8877,
8877,
8877,
8877,
8877,
8877,
8877,
8877,
8877,
8877,
8877,
8877,
8877,
8877,
8877,
8877,
8877,
8877,
8877,
8877,
8877,
8877,
8877,
8877,
8877,
8877,
8877,
8877,
8877,
8877,
8877,
8877,
8877,
8877,
8877,
8877,
8877,
8877,
8877,
8877,
8877,
8877,
8877,
8877,
8877,
8877,
8877,
8877,
8877,
8877,
8877,
8877,
8877,
8877,
8877,
8877,
8877,
8877,
8877,
8877,
8877,
8877,
8877,
8877,
8877,
8877,
8877,
8877,
8877,
8877,
8877,
8877,
8877,
8877,
8877,
8877,
8877,
8877,
8877,
8877,
8877,
8877,
8877,
8877,
8877,
8877,
8877,
8877,
8877,
8877,
8877,
8877,
8877,
8877,
8877,
8877,
8877,
8877,
8877,
8877,
8877,
8877,
8877,
8877,
8877,
8877,
8877,
8877,
8877,
8877,
8877,
8877,
8877,
8877,
8877,
8877,
8877,
8877,
8877,
8877,
8877,
8877,
8877,
8877,
8877,
8877,
8877,
8877,
8877,
8877,
8877,
8877,
8877,
8877,
8877,
8877,
8877,
8877,
8877,
8877,
8877,
8877,
8877,
8877,
8877,
8877,
8877,
8877,
8877,
8877,
8877,
8877,
8877,
8877,
8877,
8877,
8877,
8877,
8877,
8877,
8877,
8877,
8877,
8877,
8877,
8877,
8877,
8877,
8877,
8877,
8877,
8877,
8877,
8877,
8877,
8877,
8877,
8877,
8877,
8877,
8877,
8877,
8877,
8877,
8877,
8877,
8877,
8877,
8877,
8877,
8877,
8877,
8877,
8877,
8877,
8877,
8877,
8877,
8877,
8877,
8877,
8877,
8877,
8877,
8877,
8877,
8877,
8877,
8877,
8877,
8877,
8877,
8877,
8877,
8877,
8877,
8877,
8877,
8877,
8877,
8877,
8877,
8877,
8877,
8877,
8877,
8877,
8877,
8877,
8877,
8877,
8877,
8877,
8877,
8877,
8877,
8877,
8877,
8877,
8877,
8877,
8877,
8877,
8877,
8877,
8877,
8877,
8877,
8877,
8877,
8877,
8877,
8877,
8877,
8877,
8877,
8877,
8877,
8877,
8877,
8877,
8877,
8877,
8877,
8877,
8877,
8877,
8877,
8877,
8877,
8877,
8877,
8877,
8877,
8877,
8877,
8877,
8877,
8877,
8877,
8877,
8877,
8877,
8877,
8877,
8877,
8877,
8877,
8877,
8877,
8877,
8877,
8877,
8877,
8877,
8877,
8877,
8877,
8877,
8877,
8877,
8877,
8877,
8877,
8877,
8877,
8877,
8877,
8877,
8877,
8877,
8877,
8877,
8877,
8877,
8877,
8877,
8877,
8877,
8877,
8877,
8877,
8877,
8877,
8877,
8877,
8877,
8877,
8877,
8877,
8877,
8877,
8877,
8877,
8877,
8877,
8877,
8877,
8877,
8877,
8877,
8877,
8877,
8877,
8877,
8877,
8877,
8877,
8877,
8877,
8877,
8877,
8877,
8877,
8877,
8877,
8877,
8877,
8877,
8877,
8877,
8877,
8877,
8877,
8877,
8877,
8877,
8877,
8877,
8877,
8877,
8877,
8877,
8877,
8877,
8877,
8877,
8877,
8877,
8877,
8877,
8877,
8877,
8877,
8877,
8877,
8877,
8877,
8877,
8877,
8877,
8877,
1,
